Name:		mgval_0.45_2A
Optimal value:	251
#Vehicles:	2
Capacity:	180
Depot Node:	1
#Nodes:		24
#Edges:		16
#Arcs:		28
#Required N:	15
#Required E:	8
#Required A:	15

ReN.	DEMAND	S. COST
N3	10	10
N5	15	15
N6	6	6
N7	11	11
N8	10	10
N9	12	12
N11	4	4
N12	6	6
N13	6	6
N15	8	8
N16	9	9
N17	5	5
N19	22	22
N20	14	14
N21	4	4

ReE.	FROM N.	TO N.	T. COST	DEMAND	S. COST
E9	3	9	4	11	11
E10	2	4	2	7	7
E11	15	21	3	4	4
E12	13	14	1	4	4
E13	17	18	7	10	10
E14	1	2	4	6	6
E15	22	23	9	13	13
E16	10	11	11	13	13

EDGE	FROM N.	TO N.	T. COST
NrE1	12	13	5
NrE2	13	17	1
NrE3	8	14	3
NrE4	5	10	8
NrE5	15	16	6
NrE6	9	10	8
NrE7	19	22	5
NrE8	3	4	3

ReA.	FROM N.	TO N.	T. COST	DEMAND	S. COST
A14	15	11	3	6	6
A15	12	11	4	7	7
A16	23	20	4	4	4
A17	18	14	2	5	5
A18	10	20	4	7	7
A19	5	11	5	4	4
A20	20	10	4	7	7
A21	12	16	8	4	4
A22	23	24	12	17	17
A23	5	4	8	5	5
A24	1	3	5	4	4
A25	12	6	9	6	6
A26	4	5	8	4	4
A27	19	9	9	15	15
A28	24	21	8	5	5

ARC	FROM N.	TO N.	T. COST
NrA1	7	6	5
NrA2	17	16	3
NrA3	19	20	9
NrA4	21	24	8
NrA5	11	5	5
NrA6	16	17	3
NrA7	8	7	2
NrA8	20	23	4
NrA9	6	12	9
NrA10	7	8	2
NrA11	3	1	5
NrA12	20	21	5
NrA13	16	12	8
